10073 14927 1697
9759 17241 1604
13608 15392 1639
10265 17735 1518
10150 17850 1435
12490 16510 1429
13993 15007 1611
12748 15252 1666
10130 17870 1386
10480 16520 1660
12459 16541 1623
11550 17450 1478
12780 16220 1632
6901 18099 1242
10259 15741 1694
13778 14222 1636
12493 14507 1676
10485 17515 1579
14618 13382 1434
12042 15958 1685
14408 14592 1520
11740 17260 1538
8906 18094 1353
11787 15213 1695
10733 16267 1676
11495 17505 1440
